120
150
46
41
48
43
59
48
52
43
56
40
60
53
45
45
60
53
49
48
46
50
53
40
53
58
52
40
49
56
45
40
40
40
55
46
49
59
43
48
56
60
49
49
48
55
40
56
44
50
40
40
40
51
41
58
53
49
48
40
52
59
40
60
45
45
59
42
49
42
48
60
59
41
50
49
48
53
40
52
60
45
45
40
56
56
52
42
48
43
59
40
56
55
44
51
48
53
49
40
41
41
50
53
46
48
44
59
48
43
46
43
60
57
48
45
42
56
52
53
45
45
